
P = 1;

n = 10;

m = 10;

w1 = 1.00;

w2 = 5.00;

L = 3.00;

g = 1.26;

t = 
[[83,66,77,95,93,75,86,72,69,81],
[62,87,70,79,63,66,80,86,72,76],
[71,68,67,89,82,70,82,63,87,75],
[69,62,82,78,89,67,93,76,71,62],
[89,73,81,99,84,77,98,64,95,70],
[73,66,71,80,96,93,82,70,96,61],
[85,65,64,67,76,85,66,69,93,77],
[64,75,82,85,74,67,94,64,63,90],
[67,68,96,78,88,84,63,71,94,99],
[72,80,96,68,79,72,86,86,74,79]];
